
--- Job new1.gms Start 04/06/25 22:45:02 49.3.0 7de46a92 WEX-WEI x86 64bit/MS Windows
--- Applying:
    C:\GAMS\49\gmsprmNT.txt
--- GAMS Parameters defined
    Input C:\users\juand\Documents\vscode\semestre7\SistemasYModelos\gamspy\gams\sensivity\new1\new1.gms
    PageSize 0
    ScrDir C:\users\juand\Documents\vscode\semestre7\SistemasYModelos\gamspy\gams\sensivity\new1\225a\
    SysDir C:\GAMS\49\
    LogOption 3
    ErrMsg 1
    ErrorLog 99
    IDE 1
    LstTitleLeftAligned 1
Licensee: GAMS Demo, for EULA and demo limitations see   G250131/0001CB-GEN
          https://www.gams.com/latest/docs/UG%5FLicense.html         DC0000
          C:\GAMS\49\gamslice.txt
          Demo license for demonstration and instructional purposes only
System information: 8 physical cores and 16 Gb memory detected
GAMS 49.3.0   Copyright (C) 1987-2025 GAMS Development. All rights reserved
--- Starting compilation
--- new1.gms(17) 2 Mb
--- Starting execution: elapsed 0:00:00.003
--- new1.gms(16) 3 Mb
--- Generating LP model EJERCICIO
--- new1.gms(17) 3 Mb
---   4 rows  4 columns  13 non-zeroes
--- Range statistics (absolute non-zero finite values)
--- RHS       [min, max] : [ 1.500E+02, 2.400E+02] - Zero values observed as well
--- Bound     [min, max] : [        NA,        NA] - Zero values observed as well
--- Matrix    [min, max] : [ 1.000E+00, 6.000E+02]
--- Executing CPLEX (Solvelink=2): elapsed 0:00:00.025

IBM ILOG CPLEX   49.3.0 7de46a92 Mar 18, 2025          WEI x86 64bit/MS Window

*** This solver runs with a demo license. No commercial use.

Reading parameter(s) from "C:\users\juand\Documents\vscode\semestre7\SistemasYModelos\gamspy\gams\sensivity\new1\cplex.opt"
>>  objrng all 
>>  rhsrng all
Finished reading from "C:\users\juand\Documents\vscode\semestre7\SistemasYModelos\gamspy\gams\sensivity\new1\cplex.opt"

--- GMO setup time: 0.00s
--- GMO memory 0.50 Mb (peak 0.50 Mb)
--- Dictionary memory 0.00 Mb
--- Cplex 22.1.2.0 link memory 0.00 Mb (peak 0.00 Mb)
--- Starting Cplex

Version identifier: 22.1.2.0 | 2024-11-25 | 0edbb82fd
CPXPARAM_Advance                                 0
CPXPARAM_Simplex_Display                         2
CPXPARAM_MIP_Display                             4
CPXPARAM_MIP_Pool_Capacity                       0
CPXPARAM_MIP_Tolerances_AbsMIPGap                0
Tried aggregator 1 time.
LP Presolve eliminated 1 rows and 2 columns.
Reduced LP has 2 rows, 2 columns, and 4 nonzeros.
Presolve time = 0.00 sec. (0.00 ticks)

Iteration      Dual Objective            In Variable           Out Variable
     1  I            0.000000                     X3               B2 slack
     2           35400.000000                     X1               B3 slack

--- LP status (1): optimal.
--- Cplex Time: 0.00sec (det. 0.01 ticks)

--- Start ranging / sensitivity analysis...
--- Right-hand-side ranging...

EQUATION NAME                            LOWER           CURRENT             UPPER
-------------                            -----           -------             -----
OBJ                                       -INF                NA              +INF   
B1                                          87               240              +INF   
B2                                          90               150           368.571   
B3                                          50               180               300   

--- Objective ranging...

VARIABLE NAME                            LOWER           CURRENT             UPPER
-------------                            -----           -------             -----
F                                         -INF                NA              +INF   
X1                                         150               500               900   
X2                                        -INF               250               300   
X3                                         500               600              2000   


Optimal solution found
Objective:        35400.000000

--- Reading solution for model EJERCICIO
*** Status: Normal completion
--- Job new1.gms Stop 04/06/25 22:45:02 elapsed 0:00:00.161
